models/instances/2x2.dzn
n=2;
m=4;
x=[1, 1, 2, 2];
y=[1, 2, 1, 2];
M=3;
N=4;
xs=[0, 1, 1, 1];
ys=[1, 0, 1, -1];
ks=[1, 1, 1, 1];
r90=[3, 1, 4, 2];
r180=[4, 3, 2, 1];
r270=[2, 4, 1, 3];
reflect=[2, 1, 4, 3];
r180_reflect=[3, 4, 1, 2];
r270_reflect=[4, 2, 3, 1];