results/2x2.txt
% Generated FlatZinc statistics:
%%%mzn-stat: paths=0
%%%mzn-stat: flatBoolVars=42
%%%mzn-stat: flatIntVars=12
%%%mzn-stat: flatBoolConstraints=28
%%%mzn-stat: flatIntConstraints=33
%%%mzn-stat: evaluatedHalfReifiedConstraints=18
%%%mzn-stat: method="satisfy"
%%%mzn-stat: flatTime=0.0697811
%%%mzn-stat-end

=====UNSATISFIABLE=====
%%%mzn-stat: initTime=0.00043
%%%mzn-stat: solveTime=9.4e-05
%%%mzn-stat: solutions=0
%%%mzn-stat: variables=54
%%%mzn-stat: propagators=61
%%%mzn-stat: propagations=445
%%%mzn-stat: nodes=13
%%%mzn-stat: failures=7
%%%mzn-stat: restarts=0
%%%mzn-stat: peakDepth=2
%%%mzn-stat-end
%%%mzn-stat: nSolutions=0
%%%mzn-stat-end
